20	13000	3000	1200
3238	817	524
4676	620	624
3646	853	674
4797	562	620
3310	889	764
3559	766	768
3472	508	699
3525	804	627
2649	638	651
4939	634	528
3188	513	600
2130	833	589
2679	801	639
3647	556	615
4346	567	589
4425	613	573
3124	577	712
2998	845	557
4175	741	542
4411	522	756
